
Gurobi 11.0.0 (linux64) logging started Mon Jul 22 11:02:29 2024

Set parameter LogFile to value "/lustre1/scratch/348/vsc34888/JointResearch/05.Models/06.Benchmarking/M.Random_forest/RTS24_mod1_ByStages_nc20/openStarNet_RTS24_mod1_ByStages_nc20.log"
Set parameter Method to value 2
Set parameter MIPFocus to value 1
Set parameter Presolve to value 2
Set parameter RINS to value 100
Set parameter MIPGap to value 0.01
Set parameter Threads to value 36
Set parameter TimeLimit to value 259200
Set parameter IterationLimit to value 760000000
Gurobi Optimizer version 11.0.0 build v11.0.0rc2 (linux64 - "Rocky Linux 8.9 (Green Obsidian)")

CPU model: Intel(R) Xeon(R) Gold 6240 CPU @ 2.60GHz, instruction set [SSE2|AVX|AVX2|AVX512]
Thread count: 36 physical cores, 36 logical processors, using up to 36 threads

Optimize a model with 7103 rows, 4822 columns and 19378 nonzeros
Model fingerprint: 0x595461b2
Variable types: 4801 continuous, 21 integer (21 binary)
Coefficient statistics:
  Matrix range     [1e-02, 2e+03]
  Objective range  [1e+00, 1e+00]
  Bounds range     [1e-04, 2e+00]
  RHS range        [1e-04, 2e+00]
Presolve removed 4230 rows and 2436 columns
Presolve time: 0.02s
Presolved: 2873 rows, 2386 columns, 10378 nonzeros
Variable types: 2365 continuous, 21 integer (21 binary)
Found heuristic solution: objective 99.2428201
Root relaxation presolve removed 6 rows and 6 columns
Root relaxation presolved: 2867 rows, 2380 columns, 10366 nonzeros

Root barrier log...

Ordering time: 0.05s

Barrier statistics:
 AA' NZ     : 8.141e+04
 Factor NZ  : 3.864e+05 (roughly 5 MB of memory)
 Factor Ops : 8.163e+07 (less than 1 second per iteration)
 Threads    : 36

                  Objective                Residual
Iter       Primal          Dual         Primal    Dual     Compl     Time
   0   1.65871906e+06 -5.41278737e+07  1.34e+01 6.37e+02  4.42e+04     0s
   1   4.29959912e+05 -2.36418508e+07  3.45e+00 2.14e-10  1.04e+04     0s
   2   4.98255000e+04 -1.59524674e+07  4.04e-01 1.50e-10  3.03e+03     0s
   3   1.58063101e+04 -2.05616759e+06  6.87e-02 1.50e-10  3.45e+02     0s
   4   8.52614590e+03 -3.58458613e+05  8.00e-04 5.68e-11  5.47e+01     0s
   5   3.32003063e+03 -6.08531527e+04  2.97e-13 5.65e-12  9.54e+00     0s
   6   1.01160839e+03 -1.28491576e+04  1.26e-13 3.64e-12  2.06e+00     0s
   7   4.59830381e+02 -3.82325387e+03  1.52e-13 1.82e-12  6.37e-01     0s
   8   2.38364207e+02 -5.23806820e+02  9.73e-14 3.64e-12  1.13e-01     0s
   9   1.33383836e+02 -2.12539679e+02  1.02e-13 1.82e-12  5.14e-02     0s
  10   7.95593522e+01 -6.01814875e+01  6.68e-14 9.09e-13  2.08e-02     0s
  11   5.46999749e+01 -7.66380677e+00  2.19e-13 9.09e-13  9.27e-03     0s
  12   4.91503771e+01  1.18876570e+01  3.60e-13 1.82e-12  5.54e-03     0s
  13   4.70028966e+01  2.42913569e+01  6.68e-13 1.82e-12  3.38e-03     0s
  14   4.53526455e+01  3.41883962e+01  1.06e-12 1.82e-12  1.66e-03     0s
  15   4.42894145e+01  3.94737476e+01  1.30e-12 3.64e-12  7.16e-04     0s
  16   4.37550626e+01  4.10471843e+01  7.19e-13 3.64e-12  4.03e-04     0s
  17   4.32952291e+01  4.28198787e+01  2.15e-12 1.82e-12  7.07e-05     0s
  18   4.32131923e+01  4.31606856e+01  2.49e-12 7.28e-12  7.81e-06     0s
  19   4.32082824e+01  4.32041113e+01  1.11e-11 1.82e-12  6.20e-07     0s
  20   4.32078051e+01  4.32072289e+01  1.46e-11 1.82e-12  8.57e-08     0s
  21   4.32077311e+01  4.32075711e+01  7.26e-12 1.82e-12  2.38e-08     0s
  22   4.32077193e+01  4.32076864e+01  6.77e-11 1.82e-12  4.89e-09     0s
  23   4.32077185e+01  4.32077185e+01  4.17e-11 3.64e-12  7.41e-12     0s

Barrier solved model in 23 iterations and 0.41 seconds (0.14 work units)
Optimal objective 4.32077185e+01


Root relaxation: objective 4.320772e+01, 401 iterations, 0.37 seconds (0.09 work units)

    Nodes    |    Current Node    |     Objective Bounds      |     Work
 Expl Unexpl |  Obj  Depth IntInf | Incumbent    BestBd   Gap | It/Node Time

     0     0   43.20772    0   12   99.24282   43.20772  56.5%     -    0s
     0     0   44.14750    0   15   99.24282   44.14750  55.5%     -    0s
H    0     0                      89.1026990   44.39224  50.2%     -    0s
     0     0   44.40647    0   12   89.10270   44.40647  50.2%     -    0s
H    0     0                      86.5189945   44.40647  48.7%     -    0s
     0     0   46.30024    0   14   86.51899   46.30024  46.5%     -    0s
     0     0   46.30024    0   13   86.51899   46.30024  46.5%     -    0s
     0     0   46.30024    0   13   86.51899   46.30024  46.5%     -    0s
     0     0   46.30024    0   13   86.51899   46.30024  46.5%     -    0s
     0     0   46.37277    0   12   86.51899   46.37277  46.4%     -    0s
     0     0   47.19098    0   12   86.51899   47.19098  45.5%     -    0s
H    0     0                      82.4852495   47.66092  42.2%     -    0s
     0     0   47.66092    0   13   82.48525   47.66092  42.2%     -    0s
     0     0   47.66092    0   13   82.48525   47.66092  42.2%     -    0s
     0     0   47.79989    0   13   82.48525   47.79989  42.1%     -    0s
H    0     0                      67.3863045   47.79989  29.1%     -    2s
     0     2   47.79989    0   13   67.38630   47.79989  29.1%     -    2s
H  107   131                      65.2169045   50.25016  22.9%  97.3    3s
H  112   131                      65.0579842   50.25016  22.8%  97.9    3s
  1211   241   64.62552   14    7   65.05798   51.52808  20.8%  75.7    5s

Cutting planes:
  Gomory: 7
  Implied bound: 13
  MIR: 100
  Relax-and-lift: 23

Explored 2842 nodes (172822 simplex iterations) in 9.13 seconds (8.93 work units)
Thread count was 36 (of 36 available processors)

Solution count 7: 65.058 65.2169 67.3863 ... 99.2428

Optimal solution found (tolerance 1.00e-02)
Best objective 6.505798423334e+01, best bound 6.505798423334e+01, gap 0.0000%

Gurobi 11.0.0 (linux64) logging started Mon Jul 22 11:02:39 2024

Set parameter LogFile to value "/lustre1/scratch/348/vsc34888/JointResearch/05.Models/06.Benchmarking/M.Random_forest/RTS24_mod1_ByStages_nc20/openStarNet_RTS24_mod1_ByStages_nc20.log"
Set parameter Method to value 2
Set parameter MIPFocus to value 1
Set parameter Presolve to value 2
Set parameter RINS to value 100
Set parameter MIPGap to value 0.01
Set parameter Threads to value 36
Set parameter TimeLimit to value 259200
Set parameter IterationLimit to value 760000000
Gurobi Optimizer version 11.0.0 build v11.0.0rc2 (linux64 - "Rocky Linux 8.9 (Green Obsidian)")

CPU model: Intel(R) Xeon(R) Gold 6240 CPU @ 2.60GHz, instruction set [SSE2|AVX|AVX2|AVX512]
Thread count: 36 physical cores, 36 logical processors, using up to 36 threads

Optimize a model with 7103 rows, 4801 columns and 17677 nonzeros
Model fingerprint: 0xdaa64e76
Coefficient statistics:
  Matrix range     [1e-02, 2e+03]
  Objective range  [1e+00, 1e+00]
  Bounds range     [1e-04, 2e+00]
  RHS range        [1e-04, 3e+01]
Presolve removed 5939 rows and 2699 columns
Presolve time: 0.01s
Presolved: 1164 rows, 2122 columns, 5288 nonzeros

Ordering time: 0.00s

Barrier statistics:
 AA' NZ     : 2.807e+03
 Factor NZ  : 9.543e+03 (roughly 1 MB of memory)
 Factor Ops : 1.226e+05 (less than 1 second per iteration)
 Threads    : 1

                  Objective                Residual
Iter       Primal          Dual         Primal    Dual     Compl     Time
   0   2.77858766e+06 -1.66923977e+07  1.45e+01 1.82e+03  7.39e+04     0s
   1   1.82993416e+05 -1.32233036e+07  8.98e-01 3.07e-11  7.50e+03     0s
   2   5.68368785e+04 -4.49357568e+06  2.33e-01 6.48e-11  1.81e+03     0s
   3   2.32645728e+04 -1.01367159e+06  1.26e-02 2.91e-11  3.04e+02     0s
   4   1.37730650e+04 -1.67627759e+05  5.07e-05 1.46e-11  5.13e+01     0s
   5   5.02694650e+03 -4.05201695e+04  2.27e-08 1.09e-11  1.29e+01     0s
   6   1.21071303e+03 -1.01757954e+04  1.46e-09 7.28e-12  3.22e+00     0s
   7   4.66678478e+02 -1.78161943e+03  3.16e-11 7.28e-12  6.35e-01     0s
   8   2.29008783e+02 -2.09834380e+02  2.13e-12 7.28e-12  1.24e-01     0s
   9   1.40111163e+02 -2.59001083e+01  9.26e-13 7.28e-12  4.69e-02     0s
  10   9.45872548e+01  3.47700274e+01  3.56e-13 7.28e-12  1.69e-02     0s
  11   7.57978792e+01  5.14647816e+01  1.95e-13 7.28e-12  6.87e-03     0s
  12   6.86967133e+01  5.98770413e+01  1.11e-12 7.28e-12  2.49e-03     0s
  13   6.54082576e+01  6.43050066e+01  1.04e-12 7.28e-12  3.12e-04     0s
  14   6.50655966e+01  6.49939204e+01  1.23e-11 1.46e-11  2.02e-05     0s
  15   6.50588200e+01  6.50571484e+01  2.09e-11 3.64e-12  4.72e-07     0s
  16   6.50579933e+01  6.50579254e+01  1.33e-11 7.28e-12  1.92e-08     0s
  17   6.50579844e+01  6.50579839e+01  6.00e-12 7.28e-12  1.50e-10     0s
  18   6.50579842e+01  6.50579842e+01  8.46e-12 1.46e-11  1.71e-16     0s

Barrier solved model in 18 iterations and 0.03 seconds (0.02 work units)
Optimal objective 6.50579842e+01

Crossover log...

     255 DPushes remaining with DInf 0.0000000e+00                 0s
       0 DPushes remaining with DInf 0.0000000e+00                 0s

      66 PPushes remaining with PInf 0.0000000e+00                 0s
       0 PPushes remaining with PInf 0.0000000e+00                 0s

  Push phase complete: Pinf 0.0000000e+00, Dinf 4.0278761e-13      0s

Iteration    Objective       Primal Inf.    Dual Inf.      Time
      72    6.5057984e+01   0.000000e+00   0.000000e+00      0s

Use crossover to convert LP symmetric solution to basic solution...
Crossover log...

      50 PPushes remaining with PInf 0.0000000e+00                 0s
       0 PPushes remaining with PInf 0.0000000e+00                 0s

  Push phase complete: Pinf 0.0000000e+00, Dinf 3.1744568e-13      0s

Iteration    Objective       Primal Inf.    Dual Inf.      Time
     125    6.5057984e+01   0.000000e+00   0.000000e+00      0s

Solved in 125 iterations and 0.04 seconds (0.03 work units)
Optimal objective  6.505798423e+01
